n_res = 4;
rc = [ 16, 10, 16, 21 ];
n_tasks = 30;
d = [ 2, 10, 4, 2, 1, 4, 1, 10, 10, 6, 6, 1, 3, 3, 7, 7, 9, 1, 9, 3, 2, 7, 9, 1, 5, 9, 7, 10, 3, 8 ];
rr = [| 9, 10, 0, 3, 8, 0, 0, 0, 0, 0, 0, 0, 4, 6, 0, 8, 8, 1, 0, 9, 1, 6, 0, 0, 3, 7, 3, 3, 0, 2
      | 4, 0, 0, 0, 0, 4, 4, 0, 0, 4, 0, 0, 7, 0, 0, 2, 9, 2, 0, 1, 0, 2, 0, 2, 0, 2, 0, 0, 7, 0
      | 0, 0, 0, 9, 8, 7, 9, 8, 3, 0, 4, 3, 0, 9, 9, 2, 0, 0, 0, 0, 1, 0, 4, 7, 0, 0, 0, 0, 0, 0
      | 0, 4, 7, 0, 1, 5, 0, 9, 0, 0, 1, 7, 8, 4, 0, 0, 0, 7, 5, 0, 7, 0, 9, 0, 4, 0, 7, 7, 0, 10 |];
suc = [ { 2 }, 
        { 3 }, 
        { 4 }, 
        { 5 }, 
        { 6 }, 
        { 7 }, 
        { 8 }, 
        { 9 }, 
        { 10 }, 
        { 11 }, 
        { 12 }, 
        { 13 }, 
        { 14 }, 
        { 15 }, 
        { 16 }, 
        { 17 }, 
        { 18 }, 
        { 19 }, 
        { 20 }, 
        { 21 }, 
        { 22 }, 
        { 23 }, 
        { 24 }, 
        { 25 }, 
        { 26 }, 
        { 27 }, 
        { 28 }, 
        { 29 }, 
        { 30 }, 
        {  }]; 
